; chc-comp19-benchmarks/./lia-lin-arr/chc-lia-lin-arr-0172_000.smt2
(set-logic HORN)

(declare-fun |ULTIMATE.start_L1166| ( Int Int Int (Array Int Int) (Array Int Int) Int Int (Array Int Int) (Array Int Int) Int Int Int Int Int Int Int Int Int Int Int Int Int Int Int Int Int Int Int Int Int Int Int Int Int Int Int Int Int Int Int Int Int Int Int Int Int Int Int Int Int Int Int Int Bool ) Bool)
(declare-fun |ULTIMATE.start_L960| ( Int Int Int (Array Int Int) (Array Int Int) Int Int (Array Int Int) (Array Int Int) Int Int Int Int Int Int Int Int Int Int Int Int Int Int Int Int Int Int Int Int Int Int Int Int Int Int Int Int Int Int Int Int Int Int Int Int Int Int Int Int Int Int Int Int Bool ) Bool)
(declare-fun |ULTIMATE.start_ULTIMATE.startEXIT| ( Int Int Int (Array Int Int) (Array Int Int) Int Int (Array Int Int) (Array Int Int) Int Int Int Int Int Int Int Int Int Int Int Int Int Int Int Int Int Int Int Int Int Int Int Int Int Int Int Int Int Int Int Int Int Int Int Int Int Int Int Int Int Int Int Int Bool ) Bool)
(declare-fun |ULTIMATE.start_L1171-2| ( Int Int Int (Array Int Int) (Array Int Int) Int Int (Array Int Int) (Array Int Int) Int Int Int Int Int Int Int Int Int Int Int Int Int Int Int Int Int Int Int Int Int Int Int Int Int Int Int Int Int Int Int Int Int Int Int Int Int Int Int Int Int Int Int Int Bool ) Bool)
(declare-fun |ULTIMATE.start_L958| ( Int Int Int (Array Int Int) (Array Int Int) Int Int (Array Int Int) (Array Int Int) Int Int Int Int Int Int Int Int Int Int Int Int Int Int Int Int Int Int Int Int Int Int Int Int Int Int Int Int Int Int Int Int Int Int Int Int Int Int Int Int Int Int Int Int Bool ) Bool)
(declare-fun |ULTIMATE.start_L1171| ( Int Int Int (Array Int Int) (Array Int Int) Int Int (Array Int Int) (Array Int Int) Int Int Int Int Int Int Int Int Int Int Int Int Int Int Int Int Int Int Int Int Int Int Int Int Int Int Int Int Int Int Int Int Int Int Int Int Int Int Int Int Int Int Int Int Bool ) Bool)
(declare-fun |ULTIMATE.start_ULTIMATE.startENTRY| ( Int Int Int (Array Int Int) (Array Int Int) Int Int (Array Int Int) (Array Int Int) Int Int Int Int Int Int Int Int Int Int Int Int Int Int Int Int Int Int Int Int Int Int Int Int Int Int Int Int Int Int Int Int Int Int Int Int Int Int Int Int Int Int Int Int Bool ) Bool)
(declare-fun |ULTIMATE.start_L1172| ( Int Int Int (Array Int Int) (Array Int Int) Int Int (Array Int Int) (Array Int Int) Int Int Int Int Int Int Int Int Int Int Int Int Int Int Int Int Int Int Int Int Int Int Int Int Int Int Int Int Int Int Int Int Int Int Int Int Int Int Int Int Int Int Int Int Bool ) Bool)
(declare-fun |ULTIMATE.start_ULTIMATE.startFINAL| ( Int Int Int (Array Int Int) (Array Int Int) Int Int (Array Int Int) (Array Int Int) Int Int Int Int Int Int Int Int Int Int Int Int Int Int Int Int Int Int Int Int Int Int Int Int Int Int Int Int Int Int Int Int Int Int Int Int Int Int Int Int Int Int Int Int Bool ) Bool)
(declare-fun |ULTIMATE.start_L1161| ( Int Int Int (Array Int Int) (Array Int Int) Int Int (Array Int Int) (Array Int Int) Int Int Int Int Int Int Int Int Int Int Int Int Int Int Int Int Int Int Int Int Int Int Int Int Int Int Int Int Int Int Int Int Int Int Int Int Int Int Int Int Int Int Int Int Bool ) Bool)
(declare-fun |ULTIMATE.start_L-1| ( Int Int Int (Array Int Int) (Array Int Int) Int Int (Array Int Int) (Array Int Int) Int Int Int Int Int Int Int Int Int Int Int Int Int Int Int Int Int Int Int Int Int Int Int Int Int Int Int Int Int Int Int Int Int Int Int Int Int Int Int Int Int Int Int Int Bool ) Bool)
(declare-fun |ULTIMATE.start_L1165| ( Int Int Int (Array Int Int) (Array Int Int) Int Int (Array Int Int) (Array Int Int) Int Int Int Int Int Int Int Int Int Int Int Int Int Int Int Int Int Int Int Int Int Int Int Int Int Int Int Int Int Int Int Int Int Int Int Int Int Int Int Int Int Int Int Int Bool ) Bool)

(assert
  (forall ( (A Int) (B Int) (C Int) (D (Array Int Int)) (E (Array Int Int)) (F Int) (G Int) (H (Array Int Int)) (I (Array Int Int)) (J Int) (K Int) (L Int) (M Int) (N Int) (O Int) (P Int) (Q Int) (R Int) (S Int) (T Int) (U Int) (V Int) (W Int) (X Int) (Y Int) (Z Int) (A1 Int) (B1 Int) (C1 Int) (D1 Int) (E1 Int) (F1 Int) (G1 Int) (H1 Int) (I1 Int) (J1 Int) (K1 Int) (L1 Int) (M1 Int) (N1 Int) (O1 Int) (P1 Int) (Q1 Int) (R1 Int) (S1 Int) (T1 Int) (U1 Int) (V1 Int) (W1 Int) (X1 Int) (Y1 Int) (Z1 Int) (A2 Int) (B2 Bool) (C2 Int) (D2 (Array Int Int)) (E2 Int) (F2 (Array Int Int)) (G2 Int) (H2 Int) (I2 Int) ) 
    (=>
      (and
        (ULTIMATE.start_ULTIMATE.startENTRY
  C2
  B
  C
  D2
  E
  E2
  G
  F2
  I
  G2
  K
  H2
  M
  I2
  O
  P
  Q
  R
  S
  T
  U
  V
  W
  X
  Y
  Z
  A1
  B1
  C1
  D1
  E1
  F1
  G1
  H1
  I1
  J1
  K1
  L1
  M1
  N1
  O1
  P1
  Q1
  R1
  S1
  T1
  U1
  V1
  W1
  X1
  Y1
  Z1
  A2
  B2)
        (let ((a!1 (and (not (<= C A))
                (not (= A 0))
                (= F 0)
                (= J 0)
                (= L 0)
                (= 0 N)
                (= 0 (select (store D2 0 0) A))
                (= (store F2 A 8) H)
                (= (store (store D2 0 0) A 1) D))))
  (or B2 a!1))
      )
      (ULTIMATE.start_L-1
  A
  B
  C
  D
  E
  F
  G
  H
  I
  J
  K
  L
  M
  N
  O
  P
  Q
  R
  S
  T
  U
  V
  W
  X
  Y
  Z
  A1
  B1
  C1
  D1
  E1
  F1
  G1
  H1
  I1
  J1
  K1
  L1
  M1
  N1
  O1
  P1
  Q1
  R1
  S1
  T1
  U1
  V1
  W1
  X1
  Y1
  Z1
  A2
  B2)
    )
  )
)
(assert
  (forall ( (A Int) (B Int) (C Int) (D (Array Int Int)) (E (Array Int Int)) (F Int) (G Int) (H (Array Int Int)) (I (Array Int Int)) (J Int) (K Int) (L Int) (M Int) (N Int) (O Int) (P Int) (Q Int) (R Int) (S Int) (T Int) (U Int) (V Int) (W Int) (X Int) (Y Int) (Z Int) (A1 Int) (B1 Int) (C1 Int) (D1 Int) (E1 Int) (F1 Int) (G1 Int) (H1 Int) (I1 Int) (J1 Int) (K1 Int) (L1 Int) (M1 Int) (N1 Int) (O1 Int) (P1 Int) (Q1 Int) (R1 Int) (S1 Int) (T1 Int) (U1 Int) (V1 Int) (W1 Int) (X1 Int) (Y1 Int) (Z1 Int) (A2 Int) (B2 Bool) (C2 Int) (D2 Int) (E2 Int) (F2 Int) (G2 Int) (H2 Int) (I2 Int) (J2 Int) (K2 Int) (L2 Int) (M2 Int) (N2 Int) (O2 Int) (P2 Int) (Q2 Int) (R2 Int) (S2 Int) (T2 Int) (U2 Int) (V2 Int) (W2 Int) (X2 Int) (Y2 Int) (Z2 Int) ) 
    (=>
      (and
        (ULTIMATE.start_L-1
  A
  B
  C
  D
  E
  F
  G
  H
  I
  J
  K
  L
  M
  N
  O
  C2
  D2
  R
  E2
  T
  F2
  G2
  H2
  X
  Y
  Z
  A1
  B1
  I2
  J2
  K2
  L2
  M2
  N2
  O2
  J1
  K1
  L1
  M1
  P2
  Q2
  P1
  R2
  S2
  T2
  T1
  U2
  V2
  W2
  X2
  Y2
  Z1
  Z2
  B2)
        (or B2
    (and (= P Q1)
         (= U 0)
         (= D1 N1)
         (= H1 V)
         (= V1 R1)
         (= S1 F1)
         (= R1 A)
         (= Q1 Y)
         (= N1 M1)
         (= I1 W1)
         (= W1 K1)
         (= F1 N)
         (= C1 U)))
      )
      (ULTIMATE.start_L1171
  A
  B
  C
  D
  E
  F
  G
  H
  I
  J
  K
  L
  M
  N
  O
  P
  Q
  R
  S
  T
  U
  V
  W
  X
  Y
  Z
  A1
  B1
  C1
  D1
  E1
  F1
  G1
  H1
  I1
  J1
  K1
  L1
  M1
  N1
  O1
  P1
  Q1
  R1
  S1
  T1
  U1
  V1
  W1
  X1
  Y1
  Z1
  A2
  B2)
    )
  )
)
(assert
  (forall ( (A Int) (B Int) (C Int) (D (Array Int Int)) (E (Array Int Int)) (F Int) (G Int) (H (Array Int Int)) (I (Array Int Int)) (J Int) (K Int) (L Int) (M Int) (N Int) (O Int) (P Int) (Q Int) (R Int) (S Int) (T Int) (U Int) (V Int) (W Int) (X Int) (Y Int) (Z Int) (A1 Int) (B1 Int) (C1 Int) (D1 Int) (E1 Int) (F1 Int) (G1 Int) (H1 Int) (I1 Int) (J1 Int) (K1 Int) (L1 Int) (M1 Int) (N1 Int) (O1 Int) (P1 Int) (Q1 Int) (R1 Int) (S1 Int) (T1 Int) (U1 Int) (V1 Int) (W1 Int) (X1 Int) (Y1 Int) (Z1 Int) (A2 Int) (B2 Bool) (C2 Int) ) 
    (=>
      (and
        (ULTIMATE.start_L1171
  A
  B
  C
  D
  E
  F
  G
  H
  I
  C2
  K
  L
  M
  N
  O
  P
  Q
  R
  S
  T
  U
  V
  W
  X
  Y
  Z
  A1
  B1
  C1
  D1
  E1
  F1
  G1
  H1
  I1
  J1
  K1
  L1
  M1
  N1
  O1
  P1
  Q1
  R1
  S1
  T1
  U1
  V1
  W1
  X1
  Y1
  Z1
  A2
  B2)
        (or B2 (and (not (<= H1 0)) (= J 1)))
      )
      (ULTIMATE.start_L1171-2
  A
  B
  C
  D
  E
  F
  G
  H
  I
  J
  K
  L
  M
  N
  O
  P
  Q
  R
  S
  T
  U
  V
  W
  X
  Y
  Z
  A1
  B1
  C1
  D1
  E1
  F1
  G1
  H1
  I1
  J1
  K1
  L1
  M1
  N1
  O1
  P1
  Q1
  R1
  S1
  T1
  U1
  V1
  W1
  X1
  Y1
  Z1
  A2
  B2)
    )
  )
)
(assert
  (forall ( (A Int) (B Int) (C Int) (D (Array Int Int)) (E (Array Int Int)) (F Int) (G Int) (H (Array Int Int)) (I (Array Int Int)) (J Int) (K Int) (L Int) (M Int) (N Int) (O Int) (P Int) (Q Int) (R Int) (S Int) (T Int) (U Int) (V Int) (W Int) (X Int) (Y Int) (Z Int) (A1 Int) (B1 Int) (C1 Int) (D1 Int) (E1 Int) (F1 Int) (G1 Int) (H1 Int) (I1 Int) (J1 Int) (K1 Int) (L1 Int) (M1 Int) (N1 Int) (O1 Int) (P1 Int) (Q1 Int) (R1 Int) (S1 Int) (T1 Int) (U1 Int) (V1 Int) (W1 Int) (X1 Int) (Y1 Int) (Z1 Int) (A2 Int) (B2 Bool) ) 
    (=>
      (and
        (ULTIMATE.start_L1171
  A
  B
  C
  D
  E
  F
  G
  H
  I
  J
  K
  L
  M
  N
  O
  P
  Q
  R
  S
  T
  U
  V
  W
  X
  Y
  Z
  A1
  B1
  C1
  D1
  E1
  F1
  G1
  H1
  I1
  J1
  K1
  L1
  M1
  N1
  O1
  P1
  Q1
  R1
  S1
  T1
  U1
  V1
  W1
  X1
  Y1
  Z1
  A2
  B2)
        (or B2 (<= H1 0))
      )
      (ULTIMATE.start_L1171-2
  A
  B
  C
  D
  E
  F
  G
  H
  I
  J
  K
  L
  M
  N
  O
  P
  Q
  R
  S
  T
  U
  V
  W
  X
  Y
  Z
  A1
  B1
  C1
  D1
  E1
  F1
  G1
  H1
  I1
  J1
  K1
  L1
  M1
  N1
  O1
  P1
  Q1
  R1
  S1
  T1
  U1
  V1
  W1
  X1
  Y1
  Z1
  A2
  B2)
    )
  )
)
(assert
  (forall ( (A Int) (B Int) (C Int) (D (Array Int Int)) (E (Array Int Int)) (F Int) (G Int) (H (Array Int Int)) (I (Array Int Int)) (J Int) (K Int) (L Int) (M Int) (N Int) (O Int) (P Int) (Q Int) (R Int) (S Int) (T Int) (U Int) (V Int) (W Int) (X Int) (Y Int) (Z Int) (A1 Int) (B1 Int) (C1 Int) (D1 Int) (E1 Int) (F1 Int) (G1 Int) (H1 Int) (I1 Int) (J1 Int) (K1 Int) (L1 Int) (M1 Int) (N1 Int) (O1 Int) (P1 Int) (Q1 Int) (R1 Int) (S1 Int) (T1 Int) (U1 Int) (V1 Int) (W1 Int) (X1 Int) (Y1 Int) (Z1 Int) (A2 Int) (B2 Bool) (C2 Int) ) 
    (=>
      (and
        (ULTIMATE.start_L1171-2
  A
  B
  C
  D
  E
  F
  G
  H
  I
  J
  K
  L
  M
  N
  O
  P
  Q
  R
  S
  T
  U
  V
  W
  X
  Y
  Z
  A1
  B1
  C1
  D1
  C2
  F1
  G1
  H1
  I1
  J1
  K1
  L1
  M1
  N1
  O1
  P1
  Q1
  R1
  S1
  T1
  U1
  V1
  W1
  X1
  Y1
  Z1
  A2
  B2)
        (or B2 (= E1 H1))
      )
      (ULTIMATE.start_L1172
  A
  B
  C
  D
  E
  F
  G
  H
  I
  J
  K
  L
  M
  N
  O
  P
  Q
  R
  S
  T
  U
  V
  W
  X
  Y
  Z
  A1
  B1
  C1
  D1
  E1
  F1
  G1
  H1
  I1
  J1
  K1
  L1
  M1
  N1
  O1
  P1
  Q1
  R1
  S1
  T1
  U1
  V1
  W1
  X1
  Y1
  Z1
  A2
  B2)
    )
  )
)
(assert
  (forall ( (A Int) (B Int) (C Int) (D (Array Int Int)) (E (Array Int Int)) (F Int) (G Int) (H (Array Int Int)) (I (Array Int Int)) (J Int) (K Int) (L Int) (M Int) (N Int) (O Int) (P Int) (Q Int) (R Int) (S Int) (T Int) (U Int) (V Int) (W Int) (X Int) (Y Int) (Z Int) (A1 Int) (B1 Int) (C1 Int) (D1 Int) (E1 Int) (F1 Int) (G1 Int) (H1 Int) (I1 Int) (J1 Int) (K1 Int) (L1 Int) (M1 Int) (N1 Int) (O1 Int) (P1 Int) (Q1 Int) (R1 Int) (S1 Int) (T1 Int) (U1 Int) (V1 Int) (W1 Int) (X1 Int) (Y1 Int) (Z1 Int) (A2 Int) (B2 Bool) (C2 (Array Int Int)) (D2 (Array Int Int)) (E2 Int) (F2 Int) (G2 Int) (H2 Int) (I2 Int) (J2 Int) (K2 Int) (L2 Int) (M2 Int) (N2 Int) (O2 Int) (P2 Int) (Q2 Int) (R2 Int) (S2 Int) (T2 Int) ) 
    (=>
      (and
        (ULTIMATE.start_L1172
  A
  B
  C
  C2
  E
  F
  G
  D2
  I
  J
  K
  L
  M
  N
  O
  P
  Q
  E2
  F2
  G2
  U
  V
  H2
  I2
  Y
  J2
  K2
  L2
  C1
  D1
  E1
  F1
  M2
  H1
  I1
  N2
  K1
  L1
  M1
  N1
  O2
  P2
  Q1
  R1
  S1
  Q2
  U1
  V1
  W1
  R2
  Y1
  S2
  T2
  B2)
        (or B2
    (and (not (<= O1 C))
         (<= E1 2147483647)
         (<= (- 2147483648) E1)
         (= S X1)
         (= X Z)
         (= B1 A1)
         (= X1 0)
         (= T1 S)
         (= P1 99)
         (not (= O1 0))
         (= J1 T1)
         (= E1 W)
         (= G1 O1)
         (= A1 G1)
         (= Z W)
         (= R P1)
         (= (select C2 O1) 0)
         (= (store D2 O1 100) H)
         (= (store C2 O1 1) D)))
      )
      (ULTIMATE.start_L1165
  A
  B
  C
  D
  E
  F
  G
  H
  I
  J
  K
  L
  M
  N
  O
  P
  Q
  R
  S
  T
  U
  V
  W
  X
  Y
  Z
  A1
  B1
  C1
  D1
  E1
  F1
  G1
  H1
  I1
  J1
  K1
  L1
  M1
  N1
  O1
  P1
  Q1
  R1
  S1
  T1
  U1
  V1
  W1
  X1
  Y1
  Z1
  A2
  B2)
    )
  )
)
(assert
  (forall ( (A Int) (B Int) (C Int) (D (Array Int Int)) (E (Array Int Int)) (F Int) (G Int) (H (Array Int Int)) (I (Array Int Int)) (J Int) (K Int) (L Int) (M Int) (N Int) (O Int) (P Int) (Q Int) (R Int) (S Int) (T Int) (U Int) (V Int) (W Int) (X Int) (Y Int) (Z Int) (A1 Int) (B1 Int) (C1 Int) (D1 Int) (E1 Int) (F1 Int) (G1 Int) (H1 Int) (I1 Int) (J1 Int) (K1 Int) (L1 Int) (M1 Int) (N1 Int) (O1 Int) (P1 Int) (Q1 Int) (R1 Int) (S1 Int) (T1 Int) (U1 Int) (V1 Int) (W1 Int) (X1 Int) (Y1 Int) (Z1 Int) (A2 Int) (B2 Bool) ) 
    (=>
      (and
        (ULTIMATE.start_L1165
  A
  B
  C
  D
  E
  F
  G
  H
  I
  J
  K
  L
  M
  N
  O
  P
  Q
  R
  S
  T
  U
  V
  W
  X
  Y
  Z
  A1
  B1
  C1
  D1
  E1
  F1
  G1
  H1
  I1
  J1
  K1
  L1
  M1
  N1
  O1
  P1
  Q1
  R1
  S1
  T1
  U1
  V1
  W1
  X1
  Y1
  Z1
  A2
  B2)
        (or B2 (= J 1))
      )
      (ULTIMATE.start_L958
  A
  B
  C
  D
  E
  F
  G
  H
  I
  J
  K
  L
  M
  N
  O
  P
  Q
  R
  S
  T
  U
  V
  W
  X
  Y
  Z
  A1
  B1
  C1
  D1
  E1
  F1
  G1
  H1
  I1
  J1
  K1
  L1
  M1
  N1
  O1
  P1
  Q1
  R1
  S1
  T1
  U1
  V1
  W1
  X1
  Y1
  Z1
  A2
  B2)
    )
  )
)
(assert
  (forall ( (A Int) (B Int) (C Int) (D (Array Int Int)) (E (Array Int Int)) (F Int) (G Int) (H (Array Int Int)) (I (Array Int Int)) (J Int) (K Int) (L Int) (M Int) (N Int) (O Int) (P Int) (Q Int) (R Int) (S Int) (T Int) (U Int) (V Int) (W Int) (X Int) (Y Int) (Z Int) (A1 Int) (B1 Int) (C1 Int) (D1 Int) (E1 Int) (F1 Int) (G1 Int) (H1 Int) (I1 Int) (J1 Int) (K1 Int) (L1 Int) (M1 Int) (N1 Int) (O1 Int) (P1 Int) (Q1 Int) (R1 Int) (S1 Int) (T1 Int) (U1 Int) (V1 Int) (W1 Int) (X1 Int) (Y1 Int) (Z1 Int) (A2 Int) (B2 Bool) ) 
    (=>
      (and
        (ULTIMATE.start_L1165
  A
  B
  C
  D
  E
  F
  G
  H
  I
  J
  K
  L
  M
  N
  O
  P
  Q
  R
  S
  T
  U
  V
  W
  X
  Y
  Z
  A1
  B1
  C1
  D1
  E1
  F1
  G1
  H1
  I1
  J1
  K1
  L1
  M1
  N1
  O1
  P1
  Q1
  R1
  S1
  T1
  U1
  V1
  W1
  X1
  Y1
  Z1
  A2
  B2)
        (or B2 (not (= J 1)))
      )
      (ULTIMATE.start_L960
  A
  B
  C
  D
  E
  F
  G
  H
  I
  J
  K
  L
  M
  N
  O
  P
  Q
  R
  S
  T
  U
  V
  W
  X
  Y
  Z
  A1
  B1
  C1
  D1
  E1
  F1
  G1
  H1
  I1
  J1
  K1
  L1
  M1
  N1
  O1
  P1
  Q1
  R1
  S1
  T1
  U1
  V1
  W1
  X1
  Y1
  Z1
  A2
  B2)
    )
  )
)
(assert
  (forall ( (A Int) (B Int) (C Int) (D (Array Int Int)) (E (Array Int Int)) (F Int) (G Int) (H (Array Int Int)) (I (Array Int Int)) (J Int) (K Int) (L Int) (M Int) (N Int) (O Int) (P Int) (Q Int) (R Int) (S Int) (T Int) (U Int) (V Int) (W Int) (X Int) (Y Int) (Z Int) (A1 Int) (B1 Int) (C1 Int) (D1 Int) (E1 Int) (F1 Int) (G1 Int) (H1 Int) (I1 Int) (J1 Int) (K1 Int) (L1 Int) (M1 Int) (N1 Int) (O1 Int) (P1 Int) (Q1 Int) (R1 Int) (S1 Int) (T1 Int) (U1 Int) (V1 Int) (W1 Int) (X1 Int) (Y1 Int) (Z1 Int) (A2 Int) (B2 Bool) (C2 Int) (D2 Int) ) 
    (=>
      (and
        (ULTIMATE.start_L958
  A
  B
  C
  D
  E
  F
  G
  H
  I
  J
  K
  L
  M
  N
  O
  P
  Q
  R
  S
  C2
  U
  V
  W
  X
  Y
  Z
  A1
  B1
  C1
  D1
  E1
  F1
  G1
  H1
  I1
  J1
  K1
  L1
  M1
  N1
  O1
  P1
  Q1
  R1
  S1
  T1
  U1
  V1
  W1
  X1
  Y1
  D2
  A2
  B2)
        (or B2 (and (<= T 2147483647) (<= (- 2147483648) T)))
      )
      (ULTIMATE.start_L1166
  A
  B
  C
  D
  E
  F
  G
  H
  I
  J
  K
  L
  M
  N
  O
  P
  Q
  R
  S
  T
  U
  V
  W
  X
  Y
  Z
  A1
  B1
  C1
  D1
  E1
  F1
  G1
  H1
  I1
  J1
  K1
  L1
  M1
  N1
  O1
  P1
  Q1
  R1
  S1
  T1
  U1
  V1
  W1
  X1
  Y1
  Z1
  A2
  B2)
    )
  )
)
(assert
  (forall ( (A Int) (B Int) (C Int) (D (Array Int Int)) (E (Array Int Int)) (F Int) (G Int) (H (Array Int Int)) (I (Array Int Int)) (J Int) (K Int) (L Int) (M Int) (N Int) (O Int) (P Int) (Q Int) (R Int) (S Int) (T Int) (U Int) (V Int) (W Int) (X Int) (Y Int) (Z Int) (A1 Int) (B1 Int) (C1 Int) (D1 Int) (E1 Int) (F1 Int) (G1 Int) (H1 Int) (I1 Int) (J1 Int) (K1 Int) (L1 Int) (M1 Int) (N1 Int) (O1 Int) (P1 Int) (Q1 Int) (R1 Int) (S1 Int) (T1 Int) (U1 Int) (V1 Int) (W1 Int) (X1 Int) (Y1 Int) (Z1 Int) (A2 Int) (B2 Bool) (C2 Bool) ) 
    (=>
      (and
        (ULTIMATE.start_L960
  A
  B
  C
  D
  E
  F
  G
  H
  I
  J
  K
  L
  M
  N
  O
  P
  Q
  R
  S
  T
  U
  V
  W
  X
  Y
  Z
  A1
  B1
  C1
  D1
  E1
  F1
  G1
  H1
  I1
  J1
  K1
  L1
  M1
  N1
  O1
  P1
  Q1
  R1
  S1
  T1
  U1
  V1
  W1
  X1
  Y1
  Z1
  A2
  C2)
        (= B2 true)
      )
      (ULTIMATE.start_ULTIMATE.startEXIT
  A
  B
  C
  D
  E
  F
  G
  H
  I
  J
  K
  L
  M
  N
  O
  P
  Q
  R
  S
  T
  U
  V
  W
  X
  Y
  Z
  A1
  B1
  C1
  D1
  E1
  F1
  G1
  H1
  I1
  J1
  K1
  L1
  M1
  N1
  O1
  P1
  Q1
  R1
  S1
  T1
  U1
  V1
  W1
  X1
  Y1
  Z1
  A2
  B2)
    )
  )
)
(assert
  (forall ( (A Int) (B Int) (C Int) (D (Array Int Int)) (E (Array Int Int)) (F Int) (G Int) (H (Array Int Int)) (I (Array Int Int)) (J Int) (K Int) (L Int) (M Int) (N Int) (O Int) (P Int) (Q Int) (R Int) (S Int) (T Int) (U Int) (V Int) (W Int) (X Int) (Y Int) (Z Int) (A1 Int) (B1 Int) (C1 Int) (D1 Int) (E1 Int) (F1 Int) (G1 Int) (H1 Int) (I1 Int) (J1 Int) (K1 Int) (L1 Int) (M1 Int) (N1 Int) (O1 Int) (P1 Int) (Q1 Int) (R1 Int) (S1 Int) (T1 Int) (U1 Int) (V1 Int) (W1 Int) (X1 Int) (Y1 Int) (Z1 Int) (A2 Int) (B2 Bool) ) 
    (=>
      (and
        (ULTIMATE.start_L960
  A
  B
  C
  D
  E
  F
  G
  H
  I
  J
  K
  L
  M
  N
  O
  P
  Q
  R
  S
  T
  U
  V
  W
  X
  Y
  Z
  A1
  B1
  C1
  D1
  E1
  F1
  G1
  H1
  I1
  J1
  K1
  L1
  M1
  N1
  O1
  P1
  Q1
  R1
  S1
  T1
  U1
  V1
  W1
  X1
  Y1
  Z1
  A2
  B2)
        (= B2 true)
      )
      (ULTIMATE.start_L958
  A
  B
  C
  D
  E
  F
  G
  H
  I
  J
  K
  L
  M
  N
  O
  P
  Q
  R
  S
  T
  U
  V
  W
  X
  Y
  Z
  A1
  B1
  C1
  D1
  E1
  F1
  G1
  H1
  I1
  J1
  K1
  L1
  M1
  N1
  O1
  P1
  Q1
  R1
  S1
  T1
  U1
  V1
  W1
  X1
  Y1
  Z1
  A2
  B2)
    )
  )
)
(assert
  (forall ( (A Int) (B Int) (C Int) (D (Array Int Int)) (E (Array Int Int)) (F Int) (G Int) (H (Array Int Int)) (I (Array Int Int)) (J Int) (K Int) (L Int) (M Int) (N Int) (O Int) (P Int) (Q Int) (R Int) (S Int) (T Int) (U Int) (V Int) (W Int) (X Int) (Y Int) (Z Int) (A1 Int) (B1 Int) (C1 Int) (D1 Int) (E1 Int) (F1 Int) (G1 Int) (H1 Int) (I1 Int) (J1 Int) (K1 Int) (L1 Int) (M1 Int) (N1 Int) (O1 Int) (P1 Int) (Q1 Int) (R1 Int) (S1 Int) (T1 Int) (U1 Int) (V1 Int) (W1 Int) (X1 Int) (Y1 Int) (Z1 Int) (A2 Int) (B2 Bool) (C2 Int) (D2 Int) (E2 Int) ) 
    (=>
      (and
        (ULTIMATE.start_L1166
  A
  B
  C
  D
  E
  F
  G
  H
  I
  J
  K
  L
  M
  N
  O
  P
  C2
  R
  S
  T
  U
  V
  W
  X
  Y
  Z
  A1
  B1
  C1
  D1
  E1
  F1
  G1
  H1
  I1
  J1
  K1
  L1
  M1
  N1
  O1
  P1
  Q1
  R1
  S1
  T1
  D2
  V1
  W1
  X1
  E2
  Z1
  A2
  B2)
        (let ((a!1 (= (ite (<= (mod T 4294967296) 2147483647)
                   (mod T 4294967296)
                   (+ (- 4294967296) (mod T 4294967296)))
              Q)))
  (or B2 (and (= U1 0) a!1)))
      )
      (ULTIMATE.start_L1161
  A
  B
  C
  D
  E
  F
  G
  H
  I
  J
  K
  L
  M
  N
  O
  P
  Q
  R
  S
  T
  U
  V
  W
  X
  Y
  Z
  A1
  B1
  C1
  D1
  E1
  F1
  G1
  H1
  I1
  J1
  K1
  L1
  M1
  N1
  O1
  P1
  Q1
  R1
  S1
  T1
  U1
  V1
  W1
  X1
  Y1
  Z1
  A2
  B2)
    )
  )
)
(assert
  (forall ( (A Int) (B Int) (C Int) (D (Array Int Int)) (E (Array Int Int)) (F Int) (G Int) (H (Array Int Int)) (I (Array Int Int)) (J Int) (K Int) (L Int) (M Int) (N Int) (O Int) (P Int) (Q Int) (R Int) (S Int) (T Int) (U Int) (V Int) (W Int) (X Int) (Y Int) (Z Int) (A1 Int) (B1 Int) (C1 Int) (D1 Int) (E1 Int) (F1 Int) (G1 Int) (H1 Int) (I1 Int) (J1 Int) (K1 Int) (L1 Int) (M1 Int) (N1 Int) (O1 Int) (P1 Int) (Q1 Int) (R1 Int) (S1 Int) (T1 Int) (U1 Int) (V1 Int) (W1 Int) (X1 Int) (Y1 Int) (Z1 Int) (A2 Int) (B2 Bool) (C2 Int) ) 
    (=>
      (and
        (ULTIMATE.start_L1161
  A
  B
  C
  D
  E
  F
  G
  H
  I
  J
  K
  L
  M
  N
  O
  P
  Q
  R
  S
  T
  U
  V
  W
  X
  Y
  Z
  A1
  B1
  C1
  D1
  E1
  F1
  G1
  H1
  I1
  J1
  K1
  C2
  M1
  N1
  O1
  P1
  Q1
  R1
  S1
  T1
  U1
  V1
  W1
  X1
  Y1
  Z1
  A2
  B2)
        (or B2 (= L1 U1))
      )
      (ULTIMATE.start_ULTIMATE.startFINAL
  A
  B
  C
  D
  E
  F
  G
  H
  I
  J
  K
  L
  M
  N
  O
  P
  Q
  R
  S
  T
  U
  V
  W
  X
  Y
  Z
  A1
  B1
  C1
  D1
  E1
  F1
  G1
  H1
  I1
  J1
  K1
  L1
  M1
  N1
  O1
  P1
  Q1
  R1
  S1
  T1
  U1
  V1
  W1
  X1
  Y1
  Z1
  A2
  B2)
    )
  )
)
(assert
  (forall ( (A Int) (B Int) (C Int) (D (Array Int Int)) (E (Array Int Int)) (F Int) (G Int) (H (Array Int Int)) (I (Array Int Int)) (J Int) (K Int) (L Int) (M Int) (N Int) (O Int) (P Int) (Q Int) (R Int) (S Int) (T Int) (U Int) (V Int) (W Int) (X Int) (Y Int) (Z Int) (A1 Int) (B1 Int) (C1 Int) (D1 Int) (E1 Int) (F1 Int) (G1 Int) (H1 Int) (I1 Int) (J1 Int) (K1 Int) (L1 Int) (M1 Int) (N1 Int) (O1 Int) (P1 Int) (Q1 Int) (R1 Int) (S1 Int) (T1 Int) (U1 Int) (V1 Int) (W1 Int) (X1 Int) (Y1 Int) (Z1 Int) (A2 Int) (B2 Bool) ) 
    (=>
      (and
        (ULTIMATE.start_ULTIMATE.startFINAL
  A
  B
  C
  D
  E
  F
  G
  H
  I
  J
  K
  L
  M
  N
  O
  P
  Q
  R
  S
  T
  U
  V
  W
  X
  Y
  Z
  A1
  B1
  C1
  D1
  E1
  F1
  G1
  H1
  I1
  J1
  K1
  L1
  M1
  N1
  O1
  P1
  Q1
  R1
  S1
  T1
  U1
  V1
  W1
  X1
  Y1
  Z1
  A2
  B2)
        true
      )
      (ULTIMATE.start_ULTIMATE.startEXIT
  A
  B
  C
  D
  E
  F
  G
  H
  I
  J
  K
  L
  M
  N
  O
  P
  Q
  R
  S
  T
  U
  V
  W
  X
  Y
  Z
  A1
  B1
  C1
  D1
  E1
  F1
  G1
  H1
  I1
  J1
  K1
  L1
  M1
  N1
  O1
  P1
  Q1
  R1
  S1
  T1
  U1
  V1
  W1
  X1
  Y1
  Z1
  A2
  B2)
    )
  )
)
(assert
  (forall ( (A Int) (B Int) (C Int) (D (Array Int Int)) (E (Array Int Int)) (F Int) (G Int) (H (Array Int Int)) (I (Array Int Int)) (J Int) (K Int) (L Int) (M Int) (N Int) (O Int) (P Int) (Q Int) (R Int) (S Int) (T Int) (U Int) (V Int) (W Int) (X Int) (Y Int) (Z Int) (A1 Int) (B1 Int) (C1 Int) (D1 Int) (E1 Int) (F1 Int) (G1 Int) (H1 Int) (I1 Int) (J1 Int) (K1 Int) (L1 Int) (M1 Int) (N1 Int) (O1 Int) (P1 Int) (Q1 Int) (R1 Int) (S1 Int) (T1 Int) (U1 Int) (V1 Int) (W1 Int) (X1 Int) (Y1 Int) (Z1 Int) (A2 Int) (B2 Bool) ) 
    (=>
      (and
        (and (= D E) (= O N) (= M L) (= K J) (= F G) (= A B) (not B2) (= I H))
      )
      (ULTIMATE.start_ULTIMATE.startENTRY
  A
  B
  C
  D
  E
  F
  G
  H
  I
  J
  K
  L
  M
  N
  O
  P
  Q
  R
  S
  T
  U
  V
  W
  X
  Y
  Z
  A1
  B1
  C1
  D1
  E1
  F1
  G1
  H1
  I1
  J1
  K1
  L1
  M1
  N1
  O1
  P1
  Q1
  R1
  S1
  T1
  U1
  V1
  W1
  X1
  Y1
  Z1
  A2
  B2)
    )
  )
)
(assert
  (forall ( (A Int) (B Int) (C Int) (D (Array Int Int)) (E (Array Int Int)) (F Int) (G Int) (H (Array Int Int)) (I (Array Int Int)) (J Int) (K Int) (L Int) (M Int) (N Int) (O Int) (P Int) (Q Int) (R Int) (S Int) (T Int) (U Int) (V Int) (W Int) (X Int) (Y Int) (Z Int) (A1 Int) (B1 Int) (C1 Int) (D1 Int) (E1 Int) (F1 Int) (G1 Int) (H1 Int) (I1 Int) (J1 Int) (K1 Int) (L1 Int) (M1 Int) (N1 Int) (O1 Int) (P1 Int) (Q1 Int) (R1 Int) (S1 Int) (T1 Int) (U1 Int) (V1 Int) (W1 Int) (X1 Int) (Y1 Int) (Z1 Int) (A2 Int) (B2 Bool) ) 
    (=>
      (and
        (ULTIMATE.start_ULTIMATE.startEXIT
  A
  B
  C
  D
  E
  F
  G
  H
  I
  J
  K
  L
  M
  N
  O
  P
  Q
  R
  S
  T
  U
  V
  W
  X
  Y
  Z
  A1
  B1
  C1
  D1
  E1
  F1
  G1
  H1
  I1
  J1
  K1
  L1
  M1
  N1
  O1
  P1
  Q1
  R1
  S1
  T1
  U1
  V1
  W1
  X1
  Y1
  Z1
  A2
  B2)
        (= B2 true)
      )
      false
    )
  )
)

(check-sat)
(exit)
